30
0   202   205
1   207   207
2   207   201
3   203   201
4   204   207
5   204   204
6   206   204
7   207   202
8   201   204
9   201   207
10   104   104
11   105   107
12   107   101
13   106   104
14   103   106
15   107   102
16   105   101
17   103   101
18   101   101
19   106   105
20   1   4
21   6   2
22   4   6
23   1   5
24   2   7
25   4   4
26   5   2
27   3   2
28   6   2
29   7   4
400
